(declare-fun e () String)
(declare-fun c () String)
(declare-fun g () String)
(declare-fun b () String)
(declare-fun d () String)
(declare-fun h () String)
(assert (= "be" c))
(assert (= (str.++ g h d) "d"))
(assert (= e (str.++ b h c "dh")))

(check-sat)
